language ESSENCE' 1.0
letting lastdx=95
letting cage be [
[23,16,6,16,7,0,0, 0,0, 0,0],
[49,7,4,6,4,6,3,5,3,5,2],
[3,15,15,0,0, 0,0, 0,0, 0,0],
[30,1,3,1,2,1,1,2,1,2,2],
[11,12,12,0,0, 0,0, 0,0, 0,0],
[10,3,12,0,0, 0,0, 0,0, 0,0],
[13,1,10,0,0, 0,0, 0,0, 0,0],
[8,11,2,0,0, 0,0, 0,0, 0,0],
[18,13,9,13,8,13,7,0,0, 0,0],
[6,9,13,0,0, 0,0, 0,0, 0,0],
[4,16,10,0,0, 0,0, 0,0, 0,0],
[16,16,1,15,1,14,1,0,0, 0,0],
[19,9,14,10,14,0,0, 0,0, 0,0],
[35,1,5,2,5,2,6,0,0, 0,0],
[35,14,16,15,16,16,16,16,15,16,14],
[44,7,6,7,7,6,7,6,8,7,8],
[44,2,16,1,16,1,15,0,0, 0,0],
[7,13,5,0,0, 0,0, 0,0, 0,0],
[18,5,5,5,4,0,0, 0,0, 0,0],
[4,13,3,0,0, 0,0, 0,0, 0,0],
[34,2,8,2,9,1,9,1,8,0,0],
[3,12,9,0,0, 0,0, 0,0, 0,0],
[30,10,10,10,9,9,9,9,10,0,0],
[18,10,15,10,16,9,16,9,15,0,0],
[40,15,4,15,5,15,6,15,7,14,7],
[16,14,9,0,0, 0,0, 0,0, 0,0],
[41,2,10,3,10,3,9,4,9,0,0],
[38,8,6,8,5,9,5,0,0, 0,0],
[37,3,14,3,15,2,15,2,14,2,13],
[8,6,10,0,0, 0,0, 0,0, 0,0],
[51,9,12,10,12,11,12,11,13,10,13],
[14,6,14,7,14,0,0, 0,0, 0,0],
[10,7,5,6,5,0,0, 0,0, 0,0],
[12,16,8,0,0, 0,0, 0,0, 0,0],
[4,9,2,0,0, 0,0, 0,0, 0,0],
[16,4,3,0,0, 0,0, 0,0, 0,0],
[14,7,15,6,15,0,0, 0,0, 0,0],
[5,7,10,0,0, 0,0, 0,0, 0,0],
[11,13,2,0,0, 0,0, 0,0, 0,0],
[30,13,11,13,12,14,12,15,12,0,0],
[7,14,13,0,0, 0,0, 0,0, 0,0],
[41,13,6,12,6,11,6,10,6,10,7],
[16,6,1,6,2,0,0, 0,0, 0,0],
[13,16,13,15,13,0,0, 0,0, 0,0],
[34,16,11,16,12,15,11,15,10,0,0],
[2,4,15,0,0, 0,0, 0,0, 0,0],
[30,7,9,8,9,8,10,8,11,8,12],
[1,14,4,0,0, 0,0, 0,0, 0,0],
[9,8,13,0,0, 0,0, 0,0, 0,0],
[16,16,5,0,0, 0,0, 0,0, 0,0],
[58,5,1,4,1,4,2,3,2,3,1],
[14,5,11,6,11,0,0, 0,0, 0,0],
[41,9,3,9,4,10,4,10,5,0,0],
[7,16,9,0,0, 0,0, 0,0, 0,0],
[39,11,14,12,14,13,14,0,0, 0,0],
[36,11,16,11,15,12,16,13,16,0,0],
[33,4,13,3,13,5,13,5,14,4,14],
[6,10,3,0,0, 0,0, 0,0, 0,0],
[15,3,5,3,6,4,6,0,0, 0,0],
[37,8,14,8,15,8,16,7,16,0,0],
[3,2,3,0,0, 0,0, 0,0, 0,0],
[35,5,7,5,8,5,9,6,9,0,0],
[11,6,6,5,6,0,0, 0,0, 0,0],
[11,7,3,0,0, 0,0, 0,0, 0,0],
[13,12,7,0,0, 0,0, 0,0, 0,0],
[4,11,9,0,0, 0,0, 0,0, 0,0],
[24,2,7,3,7,4,7,0,0, 0,0],
[5,9,11,0,0, 0,0, 0,0, 0,0],
[39,6,12,7,12,7,11,0,0, 0,0],
[35,12,1,13,1,12,2,12,3,11,3],
[41,5,12,4,12,4,11,4,10,5,10],
[4,7,1,0,0, 0,0, 0,0, 0,0],
[30,12,4,13,4,12,5,0,0, 0,0],
[48,9,7,9,6,9,8,8,8,8,7],
[15,3,3,0,0, 0,0, 0,0, 0,0],
[20,3,8,4,8,0,0, 0,0, 0,0],
[27,7,13,6,13,0,0, 0,0, 0,0],
[16,12,11,0,0, 0,0, 0,0, 0,0],
[24,2,11,1,11,3,11,0,0, 0,0],
[12,16,3,16,4,0,0, 0,0, 0,0],
[36,16,2,15,2,14,2,0,0, 0,0],
[19,1,4,2,4,0,0, 0,0, 0,0],
[13,1,6,1,7,0,0, 0,0, 0,0],
[19,3,4,4,4,4,5,0,0, 0,0],
[37,3,16,4,16,5,16,5,15,6,16],
[7,7,2,0,0, 0,0, 0,0, 0,0],
[27,8,1,8,2,8,3,8,4,0,0],
[39,9,1,10,1,10,2,11,1,0,0],
[38,10,8,11,8,11,7,12,8,0,0],
[14,10,11,0,0, 0,0, 0,0, 0,0],
[13,11,4,11,5,0,0, 0,0, 0,0],
[15,11,10,11,11,0,0, 0,0, 0,0],
[33,12,10,13,10,14,10,14,11,0,0],
[18,12,13,13,13,0,0, 0,0, 0,0],
[19,14,3,15,3,0,0, 0,0, 0,0],
[23,14,5,14,6,0,0, 0,0, 0,0]
]
